--- 正在使用 SCIP 解析文件: bal8x12.mps ---

original problem has 192 variables (96 bin, 0 int, 0 impl, 96 cont) and 116 constraints
=========================================
      模型基本统计信息                   
=========================================
模型名称:  name
变量数量:   192
约束数量: 116


=========================================
      详细的数学表达式 (LP 格式)         
=========================================
wrote problem to file /Users/yutonglv/intern/temp_model_output.lp
\ SCIP STATISTICS
\   Problem name     : name
\   Variables        : 192 (96 binary, 0 integer, 0 implicit integer, 96 continuous)
\   Constraints      : 116
Minimize
 Obj: +16 Y94 +11 Y0 +16 Y1 +18 Y2 +17 Y3 +10 Y4 +20 Y5 +17 Y6 +13 Y7 +15 Y8 +12 Y9 +14 Y10 +14 Y11 +14 Y12
      +17 Y13 +17 Y14 +13 Y15 +15 Y16 +13 Y17 +16 Y18 +11 Y19 +20 Y20 +11 Y21 +15 Y22 +10 Y23 +12 Y24
      +13 Y25 +20 Y26 +17 Y27 +13 Y28 +15 Y29 +16 Y30 +13 Y31 +12 Y32 +13 Y33 +10 Y34 +18 Y35 +16 Y36
      +19 Y37 +16 Y38 +11 Y39 +15 Y40 +12 Y41 +18 Y42 +12 Y43 +18 Y44 +13 Y45 +13 Y46 +14 Y47 +19 Y48
      +18 Y49 +15 Y50 +16 Y51 +12 Y52 +14 Y53 +20 Y54 +19 Y55 +11 Y56 +17 Y57 +16 Y58 +18 Y59 +13 Y60
      +20 Y61 +20 Y62 +17 Y63 +15 Y64 +12 Y65 +14 Y66 +11 Y67 +12 Y68 +19 Y69 +15 Y70 +16 Y71 +11 Y72
      +12 Y73 +15 Y74 +10 Y75 +17 Y76 +11 Y77 +11 Y78 +16 Y79 +10 Y80 +18 Y81 +17 Y82 +12 Y83 +17 Y84
      +10 Y85 +20 Y86 +12 Y87 +17 Y88 +20 Y89 +16 Y90 +15 Y91 +10 Y92 +12 Y93 +18 Y95 +0.69 X0 +0.64 X1
      +0.71 X2 +0.79 X3 +1.7 X4 +2.83 X5 +2.02 X6 +5.64 X7 +5.94 X8 +5.94 X9 +5.94 X10 +7.68 X11 +1.01 X12
      +0.75 X13 +0.88 X14 +0.59 X15 +1.5 X16 +2.63 X17 +2.26 X18 +5.64 X19 +5.85 X20 +5.62 X21 +5.85 X22
      +4.94 X23 +1.05 X24 +1.06 X25 +1.08 X26 +0.64 X27 +1.22 X28 +2.37 X29 +1.66 X30 +5.64 X31 +5.91 X32
      +5.62 X33 +5.91 X34 +4.94 X35 +1.94 X36 +1.5 X37 +1.56 X38 +1.22 X39 +1.98 X40 +1.98 X41 +1.36 X42
      +6.99 X43 +6.99 X44 +6.99 X45 +6.99 X46 +3.68 X47 +1.61 X48 +1.4 X49 +1.61 X50 +1.33 X51 +1.68 X52
      +2.83 X53 +1.54 X54 +4.26 X55 +4.26 X56 +4.26 X57 +4.26 X58 +2.99 X59 +5.29 X60 +5.94 X61 +6.08 X62
      +5.29 X63 +5.96 X64 +6.77 X65 +5.08 X66 +0.31 X67 +0.21 X68 +0.17 X69 +0.31 X70 +1.53 X71 +5.29 X72
      +5.94 X73 +6.08 X74 +5.29 X75 +5.96 X76 +6.77 X77 +5.08 X78 +0.55 X79 +0.35 X80 +0.4 X81 +0.19 X82
      +1.53 X83 +5.29 X84 +6.08 X85 +6.08 X86 +5.29 X87 +5.96 X88 +6.45 X89 +5.08 X90 +2.43 X91 +2.3 X92
      +2.33 X93 +1.81 X94 +2.5 X95
Subject to
 A0: +1 X0 +1 X1 +1 X2 +1 X3 +1 X4 +1 X5 +1 X6 +1 X7 +1 X8 +1 X9 +1 X10 +1 X11 = +15
 A1: +1 X12 +1 X13 +1 X14 +1 X15 +1 X16 +1 X17 +1 X18 +1 X19 +1 X20 +1 X21 +1 X22 +1 X23 = +20
 A2: +1 X24 +1 X25 +1 X26 +1 X27 +1 X28 +1 X29 +1 X30 +1 X31 +1 X32 +1 X33 +1 X34 +1 X35 = +45
 A3: +1 X36 +1 X37 +1 X38 +1 X39 +1 X40 +1 X41 +1 X42 +1 X43 +1 X44 +1 X45 +1 X46 +1 X47 = +35
 A4: +1 X48 +1 X49 +1 X50 +1 X51 +1 X52 +1 X53 +1 X54 +1 X55 +1 X56 +1 X57 +1 X58 +1 X59 = +25
 A5: +1 X60 +1 X61 +1 X62 +1 X63 +1 X64 +1 X65 +1 X66 +1 X67 +1 X68 +1 X69 +1 X70 +1 X71 = +35
 A6: +1 X72 +1 X73 +1 X74 +1 X75 +1 X76 +1 X77 +1 X78 +1 X79 +1 X80 +1 X81 +1 X82 +1 X83 = +10
 A7: +1 X84 +1 X85 +1 X86 +1 X87 +1 X88 +1 X89 +1 X90 +1 X91 +1 X92 +1 X93 +1 X94 +1 X95 = +25
 B0: +1 X0 +1 X12 +1 X24 +1 X36 +1 X48 +1 X60 +1 X72 +1 X84 = +20
 B1: +1 X1 +1 X13 +1 X25 +1 X37 +1 X49 +1 X61 +1 X73 +1 X85 = +15
 B2: +1 X2 +1 X14 +1 X26 +1 X38 +1 X50 +1 X62 +1 X74 +1 X86 = +20
 B3: +1 X3 +1 X15 +1 X27 +1 X39 +1 X51 +1 X63 +1 X75 +1 X87 = +15
 B4: +1 X4 +1 X16 +1 X28 +1 X40 +1 X52 +1 X64 +1 X76 +1 X88 = +5
 B5: +1 X5 +1 X17 +1 X29 +1 X41 +1 X53 +1 X65 +1 X77 +1 X89 = +20
 B6: +1 X6 +1 X18 +1 X30 +1 X42 +1 X54 +1 X66 +1 X78 +1 X90 = +30
 B7: +1 X7 +1 X19 +1 X31 +1 X43 +1 X55 +1 X67 +1 X79 +1 X91 = +10
 B8: +1 X8 +1 X20 +1 X32 +1 X44 +1 X56 +1 X68 +1 X80 +1 X92 = +35
 B9: +1 X9 +1 X21 +1 X33 +1 X45 +1 X57 +1 X69 +1 X81 +1 X93 = +25
 B10: +1 X10 +1 X22 +1 X34 +1 X46 +1 X58 +1 X70 +1 X82 +1 X94 = +10
 B11: +1 X11 +1 X23 +1 X35 +1 X47 +1 X59 +1 X71 +1 X83 +1 X95 = +5
 G0: +1 X0 -15 Y0 <= +0
 G1: +1 X1 -15 Y1 <= +0
 G2: +1 X2 -15 Y2 <= +0
 G3: +1 X3 -15 Y3 <= +0
 G4: +1 X4 -5 Y4 <= +0
 G5: +1 X5 -15 Y5 <= +0
 G6: +1 X6 -15 Y6 <= +0
 G7: +1 X7 -10 Y7 <= +0
 G8: +1 X8 -15 Y8 <= +0
 G9: +1 X9 -15 Y9 <= +0
 G10: +1 X10 -10 Y10 <= +0
 G11: +1 X11 -5 Y11 <= +0
 G12: +1 X12 -20 Y12 <= +0
 G13: +1 X13 -15 Y13 <= +0
 G14: +1 X14 -20 Y14 <= +0
 G15: +1 X15 -15 Y15 <= +0
 G16: +1 X16 -5 Y16 <= +0
 G17: +1 X17 -20 Y17 <= +0
 G18: +1 X18 -20 Y18 <= +0
 G19: +1 X19 -10 Y19 <= +0
 G20: +1 X20 -20 Y20 <= +0
 G21: +1 X21 -20 Y21 <= +0
 G22: +1 X22 -10 Y22 <= +0
 G23: +1 X23 -5 Y23 <= +0
 G24: +1 X24 -20 Y24 <= +0
 G25: +1 X25 -15 Y25 <= +0
 G26: +1 X26 -20 Y26 <= +0
 G27: +1 X27 -15 Y27 <= +0
 G28: +1 X28 -5 Y28 <= +0
 G29: +1 X29 -20 Y29 <= +0
 G30: +1 X30 -30 Y30 <= +0
 G31: +1 X31 -10 Y31 <= +0
 G32: +1 X32 -35 Y32 <= +0
 G33: +1 X33 -25 Y33 <= +0
 G34: +1 X34 -10 Y34 <= +0
 G35: +1 X35 -5 Y35 <= +0
 G36: +1 X36 -20 Y36 <= +0
 G37: +1 X37 -15 Y37 <= +0
 G38: +1 X38 -20 Y38 <= +0
 G39: +1 X39 -15 Y39 <= +0
 G40: +1 X40 -5 Y40 <= +0
 G41: +1 X41 -20 Y41 <= +0
 G42: +1 X42 -30 Y42 <= +0
 G43: +1 X43 -10 Y43 <= +0
 G44: +1 X44 -35 Y44 <= +0
 G45: +1 X45 -25 Y45 <= +0
 G46: +1 X46 -10 Y46 <= +0
 G47: +1 X47 -5 Y47 <= +0
 G48: +1 X48 -20 Y48 <= +0
 G49: +1 X49 -15 Y49 <= +0
 G50: +1 X50 -20 Y50 <= +0
 G51: +1 X51 -15 Y51 <= +0
 G52: +1 X52 -5 Y52 <= +0
 G53: +1 X53 -20 Y53 <= +0
 G54: +1 X54 -25 Y54 <= +0
 G55: +1 X55 -10 Y55 <= +0
 G56: +1 X56 -25 Y56 <= +0
 G57: +1 X57 -25 Y57 <= +0
 G58: +1 X58 -10 Y58 <= +0
 G59: +1 X59 -5 Y59 <= +0
 G60: +1 X60 -20 Y60 <= +0
 G61: +1 X61 -15 Y61 <= +0
 G62: +1 X62 -20 Y62 <= +0
 G63: +1 X63 -15 Y63 <= +0
 G64: +1 X64 -5 Y64 <= +0
 G65: +1 X65 -20 Y65 <= +0
 G66: +1 X66 -30 Y66 <= +0
 G67: +1 X67 -10 Y67 <= +0
 G68: +1 X68 -35 Y68 <= +0
 G69: +1 X69 -25 Y69 <= +0
 G70: +1 X70 -10 Y70 <= +0
 G71: +1 X71 -5 Y71 <= +0
 G72: +1 X72 -10 Y72 <= +0
 G73: +1 X73 -10 Y73 <= +0
 G74: +1 X74 -10 Y74 <= +0
 G75: +1 X75 -10 Y75 <= +0
 G76: +1 X76 -5 Y76 <= +0
 G77: +1 X77 -10 Y77 <= +0
 G78: +1 X78 -10 Y78 <= +0
 G79: +1 X79 -10 Y79 <= +0
 G80: +1 X80 -10 Y80 <= +0
 G81: +1 X81 -10 Y81 <= +0
 G82: +1 X82 -10 Y82 <= +0
 G83: +1 X83 -5 Y83 <= +0
 G84: +1 X84 -20 Y84 <= +0
 G85: +1 X85 -15 Y85 <= +0
 G86: +1 X86 -20 Y86 <= +0
 G87: +1 X87 -15 Y87 <= +0
 G88: +1 X88 -5 Y88 <= +0
 G89: +1 X89 -20 Y89 <= +0
 G90: +1 X90 -25 Y90 <= +0
 G91: +1 X91 -10 Y91 <= +0
 G92: +1 X92 -25 Y92 <= +0
 G93: +1 X93 -25 Y93 <= +0
 G94: +1 X94 -10 Y94 <= +0
 G95: +1 X95 -5 Y95 <= +0
Bounds
 0 <= Y94 <= 1
 0 <= Y0 <= 1
 0 <= Y1 <= 1
 0 <= Y2 <= 1
 0 <= Y3 <= 1
 0 <= Y4 <= 1
 0 <= Y5 <= 1
 0 <= Y6 <= 1
 0 <= Y7 <= 1
 0 <= Y8 <= 1
 0 <= Y9 <= 1
 0 <= Y10 <= 1
 0 <= Y11 <= 1
 0 <= Y12 <= 1
 0 <= Y13 <= 1
 0 <= Y14 <= 1
 0 <= Y15 <= 1
 0 <= Y16 <= 1
 0 <= Y17 <= 1
 0 <= Y18 <= 1
 0 <= Y19 <= 1
 0 <= Y20 <= 1
 0 <= Y21 <= 1
 0 <= Y22 <= 1
 0 <= Y23 <= 1
 0 <= Y24 <= 1
 0 <= Y25 <= 1
 0 <= Y26 <= 1
 0 <= Y27 <= 1
 0 <= Y28 <= 1
 0 <= Y29 <= 1
 0 <= Y30 <= 1
 0 <= Y31 <= 1
 0 <= Y32 <= 1
 0 <= Y33 <= 1
 0 <= Y34 <= 1
 0 <= Y35 <= 1
 0 <= Y36 <= 1
 0 <= Y37 <= 1
 0 <= Y38 <= 1
 0 <= Y39 <= 1
 0 <= Y40 <= 1
 0 <= Y41 <= 1
 0 <= Y42 <= 1
 0 <= Y43 <= 1
 0 <= Y44 <= 1
 0 <= Y45 <= 1
 0 <= Y46 <= 1
 0 <= Y47 <= 1
 0 <= Y48 <= 1
 0 <= Y49 <= 1
 0 <= Y50 <= 1
 0 <= Y51 <= 1
 0 <= Y52 <= 1
 0 <= Y53 <= 1
 0 <= Y54 <= 1
 0 <= Y55 <= 1
 0 <= Y56 <= 1
 0 <= Y57 <= 1
 0 <= Y58 <= 1
 0 <= Y59 <= 1
 0 <= Y60 <= 1
 0 <= Y61 <= 1
 0 <= Y62 <= 1
 0 <= Y63 <= 1
 0 <= Y64 <= 1
 0 <= Y65 <= 1
 0 <= Y66 <= 1
 0 <= Y67 <= 1
 0 <= Y68 <= 1
 0 <= Y69 <= 1
 0 <= Y70 <= 1
 0 <= Y71 <= 1
 0 <= Y72 <= 1
 0 <= Y73 <= 1
 0 <= Y74 <= 1
 0 <= Y75 <= 1
 0 <= Y76 <= 1
 0 <= Y77 <= 1
 0 <= Y78 <= 1
 0 <= Y79 <= 1
 0 <= Y80 <= 1
 0 <= Y81 <= 1
 0 <= Y82 <= 1
 0 <= Y83 <= 1
 0 <= Y84 <= 1
 0 <= Y85 <= 1
 0 <= Y86 <= 1
 0 <= Y87 <= 1
 0 <= Y88 <= 1
 0 <= Y89 <= 1
 0 <= Y90 <= 1
 0 <= Y91 <= 1
 0 <= Y92 <= 1
 0 <= Y93 <= 1
 0 <= Y95 <= 1

End